
Gurobi 10.0.0 (linux64) logging started Thu Nov 24 23:43:04 2022

Set parameter LogFile to value "../results/k04_n050_d015/k04_n050_d019_GEOM50a_RP-MILO_log.txt"
Set parameter LazyConstraints to value 1
Gurobi Optimizer version 10.0.0 build v10.0.0rc2 (linux64)

CPU model: Intel(R) Xeon(R) CPU E5-2630 v4 @ 2.20GHz, instruction set [SSE2|AVX|AVX2]
Thread count: 20 physical cores, 40 logical processors, using up to 10 threads

Optimize a model with 7185 rows, 348 columns and 21555 nonzeros
Model fingerprint: 0x4e526d90
Coefficient statistics:
  Matrix range     [1e+00, 1e+00]
  Objective range  [1e+00, 9e+00]
  Bounds range     [1e+00, 1e+00]
  RHS range        [1e+00, 1e+00]
Presolve time: 0.01s
Presolved: 3561 rows, 348 columns, 10683 nonzeros

Iteration    Objective       Primal Inf.    Dual Inf.      Time
       0    1.3160000e+03   0.000000e+00   0.000000e+00      0s
       0    1.3160000e+03   0.000000e+00   0.000000e+00      0s

Solved in 0 iterations and 0.01 seconds (0.01 work units)
Optimal objective  1.316000000e+03
Set parameter TimeLimit to value 3.5993407862186432e+03
Gurobi Optimizer version 10.0.0 build v10.0.0rc2 (linux64)

CPU model: Intel(R) Xeon(R) CPU E5-2630 v4 @ 2.20GHz, instruction set [SSE2|AVX|AVX2]
Thread count: 20 physical cores, 40 logical processors, using up to 10 threads

Optimize a model with 12196 rows, 348 columns and 71665 nonzeros
Coefficient statistics:
  Matrix range     [1e+00, 1e+00]
  Objective range  [1e+00, 9e+00]
  Bounds range     [1e+00, 1e+00]
  RHS range        [1e+00, 1e+00]
Iteration    Objective       Primal Inf.    Dual Inf.      Time
       0    1.3160000e+03   5.011000e+03   0.000000e+00      0s
     963    1.2066735e+03   0.000000e+00   0.000000e+00      0s

Solved in 963 iterations and 0.26 seconds (0.38 work units)
Optimal objective  1.206673451e+03
